p cnf 7 47
7 3 -5 -1 -4 -6 0
1 -3 -2 -5 -4 0
2 3 6 0
6 -7 -4 -5 0
-2 4 0
-3 4 -5 0
2 3 0
5 -4 -3 1 2 6 0
-4 -1 0
-6 2 -1 -3 0
-6 4 0
-7 -1 3 6 4 -2 5 0
-4 6 -5 -7 1 3 -2 0
-2 -7 3 0
6 2 3 -4 0
7 -2 0
-3 5 0
-2 1 3 -6 5 -7 -4 0
-5 -4 -6 0
-6 2 -7 0
2 7 3 -4 6 -1 0
2 -3 5 -4 0
-2 -6 0
-4 -3 -7 5 0
-5 7 -1 6 0
-2 -7 0
-6 4 3 2 0
-1 2 7 0
3 7 -1 0
-1 4 -2 -3 5 0
-1 5 -7 6 -2 3 4 0
-6 -2 0
2 -1 3 6 4 -7 5 0
3 5 -7 0
3 1 6 0
-4 3 -1 0
-7 -2 0
-1 5 0
5 -7 6 4 -2 1 0
6 -1 4 5 -7 0
1 -7 3 6 0
4 -1 0
5 1 -6 3 7 -2 4 0
6 3 0
1 -5 -6 -4 0
3 -1 0
-4 -2 0
